certificates/rado_a10_c34_N31.drat
3 -31 0
25 -3 0
-31 0
-25 0
1 0
4 0
-3 0
-7 0
-10 0
-28 0
0
